NAME : Example
TYPE : CVRP
DIMENSION : 6
EDGE_WEIGHT_TYPE : EUC_2D
CAPACITY : 100
NODE_COORD_SECTION
1 10 10
2 20 30
3 15 35
4 25 25
5 30 20
6 35 10
DEMAND_SECTION
1 0
2 10
3 20
4 30
5 40
6 10
DEPOT_SECTION
1
-1
EOF
